%chk=anthracene.chk
#p

cc-pVDZ

0 1
 C                  3.66067900    0.71314600   -0.00001700
 C                  2.47953000    1.40703600    0.00004600
 C                  1.22392300    0.72262400    0.00003000
 C                  1.22392400   -0.72262500    0.00002200
 C                  2.47953200   -1.40703600   -0.00002500
 C                  3.66068100   -0.71314200   -0.00006100
 C                  0.00000000    1.40337700    0.00002400
 C                  0.00000100   -1.40337800    0.00002800
 C                 -1.22392200   -0.72262600    0.00002400
 C                 -1.22392400    0.72262400    0.00000600
 C                 -2.47953000    1.40703700   -0.00002700
 H                 -2.47686500    2.49457900   -0.00006700
 C                 -3.66068000    0.71314500   -0.00005500
 C                 -3.66068000   -0.71314300   -0.00000700
 C                 -2.47953100   -1.40703700    0.00002900
 H                 -0.00000600    2.49174700    0.00004600
 H                  4.60736000    1.24665700   -0.00004400
 H                  2.47686200    2.49457900    0.00009700
 H                  2.47686600   -2.49457800   -0.00002700
 H                  4.60735600   -1.24666200   -0.00011900
 H                 -0.00000400   -2.49174900    0.00004700
 H                 -4.60735700    1.24666200   -0.00009100
 H                 -4.60735700   -1.24666000   -0.00002300
 H                 -2.47686900   -2.49458000    0.00007400





