%chk=octacene.chk
#p

cc-pVDZ

0 1
 C                  9.82180700   -0.71304900   -0.00028600
 C                  9.82180600    0.71305000   -0.00028500
 C                  8.63986900    1.40746600   -0.00019400
 C                  7.38431500    0.72425100   -0.00009900
 C                  7.38431500   -0.72425100   -0.00010000
 C                  8.63987000   -1.40746600   -0.00019400
 C                  6.16231500   -1.40597700   -0.00001400
 C                  4.93007100   -0.72767100    0.00005900
 C                  4.93007100    0.72767100    0.00006000
 C                  6.16231500    1.40597700   -0.00001400
 C                  3.69403100    1.40859500    0.00012100
 C                  2.46770800    0.73080300    0.00016500
 C                  2.46770800   -0.73080300    0.00016500
 C                  3.69403100   -1.40859500    0.00012100
 C                  1.23074400   -1.40981400    0.00019300
 C                  0.00000000   -0.73186800    0.00020100
 C                  0.00000000    0.73186700    0.00020100
 C                  1.23074400    1.40981400    0.00019400
 C                 -1.23074400    1.40981400    0.00019300
 C                 -2.46770800    0.73080300    0.00016500
 C                 -2.46770800   -0.73080300    0.00016500
 C                 -1.23074400   -1.40981400    0.00019200
 C                 -3.69403200   -1.40859500    0.00012100
 C                 -4.93007100   -0.72767000    0.00006000
 C                 -4.93007100    0.72767100    0.00005900
 C                 -3.69403100    1.40859500    0.00012200
 C                 -6.16231500    1.40597800   -0.00001500
 C                 -7.38431500    0.72425100   -0.00010000
 C                 -7.38431500   -0.72425100   -0.00009900
 C                 -6.16231500   -1.40597700   -0.00001400
 C                 -8.63986900   -1.40746600   -0.00019300
 C                 -9.82180600   -0.71305000   -0.00028500
 C                 -9.82180700    0.71304900   -0.00028600
 C                 -8.63986900    1.40746600   -0.00019400
 H                 10.76825800   -1.24680300   -0.00036000
 H                 10.76825800    1.24680300   -0.00036000
 H                  8.63750900    2.49497000   -0.00019600
 H                  8.63750900   -2.49497000   -0.00019600
 H                  6.16318300   -2.49415700   -0.00001800
 H                  6.16318300    2.49415700   -0.00001700
 H                  3.69509800    2.49661000    0.00011200
 H                  3.69509800   -2.49661000    0.00011300
 H                  1.23111900   -2.49778900    0.00018500
 H                  1.23111900    2.49778900    0.00018700
 H                 -1.23111900    2.49778900    0.00018400
 H                 -1.23112000   -2.49778900    0.00018300
 H                 -3.69509800   -2.49661000    0.00011500
 H                 -3.69509800    2.49661000    0.00011400
 H                 -6.16318300    2.49415700   -0.00002000
 H                 -6.16318300   -2.49415700   -0.00001900
 H                 -8.63750800   -2.49497000   -0.00019400
 H                -10.76825700   -1.24680300   -0.00036000
 H                -10.76825800    1.24680300   -0.00036200
 H                 -8.63750900    2.49497000   -0.00019600


