%chk=pentacene.chk
#p

cc-pVDZ

0 1
 C                 -6.11791400   -0.71658900   -0.00000100
 C                 -6.11791300    0.71659000   -0.00000500
 C                 -4.94181600    1.41055700   -0.00000400
 C                 -3.67862900    0.72768000    0.00000000
 C                 -3.67862900   -0.72768000    0.00000200
 C                 -4.94181600   -1.41055700    0.00000300
 C                 -2.46766600   -1.40789000    0.00000300
 C                 -1.22644800   -0.72852500    0.00000200
 C                 -1.22644800    0.72852500    0.00000100
 C                 -2.46766600    1.40789000   -0.00000100
 C                  0.00000000    1.40851800    0.00000100
 C                  1.22644800    0.72852500    0.00000100
 C                  1.22644800   -0.72852500    0.00000100
 C                  0.00000000   -1.40851900    0.00000100
 C                  2.46766600   -1.40788900   -0.00000200
 C                  3.67862900   -0.72767900   -0.00000200
 C                  3.67862900    0.72768000    0.00000100
 C                  2.46766600    1.40789000    0.00000300
 C                  4.94181600    1.41055700    0.00000300
 C                  6.11791400    0.71659000    0.00000000
 C                  6.11791400   -0.71659000   -0.00000300
 C                  4.94181600   -1.41055700   -0.00000400
 H                 -7.06597000   -1.24758700    0.00000100
 H                 -7.06596900    1.24758800   -0.00000800
 H                 -4.93957400    2.49805900   -0.00000600
 H                 -4.93957400   -2.49806000    0.00000800
 H                 -2.46759700   -2.49608200    0.00000500
 H                 -2.46759800    2.49608200   -0.00000200
 H                  0.00000000    2.49659900    0.00000000
 H                  0.00000000   -2.49659900    0.00000000
 H                  2.46759800   -2.49608100   -0.00000300
 H                  2.46759700    2.49608100    0.00000600
 H                  4.93957400    2.49805900    0.00000600
 H                  7.06597000    1.24758800    0.00000000
 H                  7.06596900   -1.24758800   -0.00000400
 H                  4.93957400   -2.49805900   -0.00000700

